db/data/6906167288282566930527189124769925.z3.out
-------------------
2500.453297060
